########		#########
#				#
# 1) Set up simulation box	#
#				#
########		#########

units		real
atom_style	atomic
dimension	3
boundary	p p p

lattice 	custom 13 a1 1.0 0.0 0.0 a2 0.0 1.0 0.0 a3 0.0 0.0 1.0 & 
		basis 0.0 0.0 0.0 basis 0.5 0.5 0.5 &
		basis 0.25 0.25 0.0 basis 0.75 0.75 0.0 basis 0.75 0.25 0.5 basis 0.25 0.75 0.5
region 	space block 0 5 0 5 0 5
create_box 	2 space
create_atoms 	1 box basis 3 2 basis 4 2 basis 5 2 basis 6 2

########				#########
#						#
# 2) Define interparticle interactions	#
#						#
########				#########

pair_style	lj/cut 15
pair_modify	shift yes
pair_coeff	1 1 0.5 4.25
pair_coeff	1 2 1.45 5.75 #0.8 7.5
pair_coeff	2 2 1.0 7.5 #0.6 10.0
mass		1 102.181
mass		2 340.419

neighbor        0.3 bin
neigh_modify    delay 10 every 1

########	 #########
#			 #
# 3) Simulation setup	 #
#			 #
########	 #########

#fix		LinMom all momentum 50 linear 1 1 1 angular
#fix		1 all nvt temp 1.00 1.00 5.0
fix 		1 all npt temp 373.0.0 373.0 25.0 iso 1.0 1.0  10.0

velocity	all create 373.0 199085 mom no

timestep	0.5

thermo_style	custom step temp press vol density


run_style	verlet

thermo		1000
run		4000000

#unfix 		1
#fix		1 all nve
#run 		2000000

#dump pos all xyz 10 lj.xyz

dump		2 all custom 10 lj_trajectory_match_npt_test.out id mass x y z xu yu zu 
dump_modify	2 sort id  
dump_modify	2 format line "%d %.2f %.12f %.12f %.12f %.12f %.12f %.12f"

run		10000


# 4) Misc
#######################

#dump		2 all custom 1000 positions.lammpstrj id x y z vx vy vz
#dump_modify	2 sort id

#compute		RDF all rdf 150 cutoff 3.5
#fix		RDF_OUTPUT all ave/time 25 100 5000 c_RDF[*] file rdf_lj.out mode vector

#compute		MSD all msd
#fix		MSD_OUTPUT all ave/correlate 1 5000 5000 c_MSD[*] file msd_lj.out ave running

#compute		VACF all vacf
#fix		VACF_OUTPUT all ave/correlate 1 2500 5000 c_VACF[*] file vacf_lj.out ave running

#run		5000

#write_restart	restart2.lj.equil
